/*---------------------------------------------------------------------------------------------------------------------------------------
Set the maximum scaling factor of 1stageLT
---------------------------------------------------------------------------------------------------------------------------------------*/
let  Fmax['HP1stageLT'] := 10;

/*---------------------------------------------------------------------------------------------------------------------------------------
Set the reference size of Heat flow (will be scaled with mult_t)????
---------------------------------------------------------------------------------------------------------------------------------------*/
# let  Flowout['Heat','HP2stage'] := 1000; # [KW]
# why are we trying to calculate this? isn't this just Qheatingsupply['HP2stage'] ??

/*---------------------------------------------------------------------------------------------------------------------------------------
Set the hot and cold temperature
---------------------------------------------------------------------------------------------------------------------------------------*/
param Th_HP1stage := 323.15;      # 50C

/*---------------------------------------------------------------------------------------------------------------------------------------
Set cost parameter
---------------------------------------------------------------------------------------------------------------------------------------*/

let cinv1['HP1stageLT'] := 100000;			#  [CHF]

let cinv2['HP1stageLT'] := 100000;			# continious investment cost [CHF/kWp]
